variable        x index 200
variable        y index 200
variable        z index 200
variable        t index 1000

variable        xx equal 1*$x
variable        yy equal 1*$y
variable        zz equal 1*$z

variable        interval equal $t/2

units           lj
atom_style      atomic/kk

lattice         fcc 0.8442
region          box block 0 ${xx} 0 ${yy} 0 ${zz}
create_box      1 box
create_atoms    1 box
mass            1 1.0

velocity        all create 1.44 87287 loop geom

pair_style      lj/cut/kk 2.5
pair_coeff      1 1 1.0 1.0 2.5

neighbor        0.3 bin
neigh_modify    delay 0 every 20 check no

fix             1 all nve

thermo          ${interval}
thermo_style custom step time  temp press pe ke etotal density
run_style       verlet/kk
run             $t